NAME : S-G-150-15.2091.tour
COMMENT : Length = 2091
COMMENT : Found by LKH [Keld Helsgaun] Thu May 17 23:18:20 2018
TYPE : TOUR
DIMENSION : 31
TOUR_SECTION
1
31
25
24
21
27
30
20
6
13
11
3
28
14
5
16
9
8
26
29
18
17
10
4
7
15
2
22
12
19
23
-1
EOF
